c Created with the Wolfram Language : www.wolfram.com
c 
p edge 70 380
e 1 4
e 4 5
e 1 6
e 1 9
e 3 11
e 7 11
e 10 11
e 8 14
e 12 14
e 2 15
e 8 16
e 13 16
e 4 17
e 13 17
e 2 18
e 4 18
e 8 19
e 2 20
e 4 20
e 6 20
e 7 20
e 8 20
e 10 21
e 11 21
e 19 22
e 12 23
e 18 24
e 4 25
e 10 25
e 11 25
e 18 25
e 3 26
e 9 26
e 14 26
e 1 27
e 7 27
e 16 27
e 21 27
e 22 27
e 23 27
e 3 28
e 6 28
e 11 28
e 12 28
e 21 28
e 22 28
e 27 28
e 2 29
e 5 29
e 6 29
e 9 29
e 28 29
e 7 30
e 8 30
e 12 30
e 14 30
e 16 30
e 17 30
e 20 30
e 28 30
e 2 31
e 5 31
e 25 31
e 28 31
e 2 32
e 7 32
e 14 32
e 24 32
e 10 33
e 19 33
e 12 34
e 14 34
e 16 34
e 22 34
e 29 34
e 2 35
e 10 35
e 12 35
e 13 35
e 25 35
e 26 35
e 29 35
e 5 36
e 13 36
e 17 36
e 18 36
e 22 36
e 24 36
e 32 36
e 2 37
e 8 37
e 17 37
e 18 37
e 20 37
e 17 38
e 18 38
e 30 38
e 31 38
e 37 38
e 24 39
e 37 39
e 7 40
e 11 40
e 19 40
e 36 40
e 21 41
e 36 41
e 1 42
e 10 42
e 18 42
e 23 42
e 28 42
e 34 42
e 35 42
e 5 43
e 11 43
e 18 43
e 22 43
e 29 43
e 42 43
e 2 44
e 7 44
e 15 44
e 19 44
e 24 44
e 25 44
e 29 44
e 33 44
e 6 45
e 7 45
e 14 45
e 17 45
e 26 45
e 28 45
e 34 45
e 38 45
e 39 45
e 41 45
e 42 45
e 1 46
e 12 46
e 20 46
e 29 46
e 39 46
e 44 46
e 2 47
e 9 47
e 15 47
e 19 47
e 22 47
e 25 47
e 27 47
e 31 47
e 40 47
e 44 47
e 6 48
e 8 48
e 15 48
e 18 48
e 19 48
e 20 48
e 21 48
e 22 48
e 33 48
e 47 48
e 5 49
e 11 49
e 19 49
e 25 49
e 32 49
e 34 49
e 37 49
e 3 50
e 15 50
e 16 50
e 20 50
e 25 50
e 27 50
e 32 50
e 36 50
e 38 50
e 39 50
e 42 50
e 2 51
e 5 51
e 7 51
e 17 51
e 30 51
e 41 51
e 10 52
e 12 52
e 14 52
e 17 52
e 28 52
e 31 52
e 37 52
e 43 52
e 44 52
e 47 52
e 6 53
e 9 53
e 12 53
e 17 53
e 18 53
e 20 53
e 25 53
e 30 53
e 35 53
e 37 53
e 39 53
e 44 53
e 52 53
e 7 54
e 13 54
e 19 54
e 24 54
e 34 54
e 37 54
e 44 54
e 45 54
e 47 54
e 50 54
e 3 55
e 4 55
e 8 55
e 14 55
e 19 55
e 24 55
e 27 55
e 31 55
e 34 55
e 36 55
e 41 55
e 42 55
e 43 55
e 51 55
e 1 56
e 9 56
e 31 56
e 37 56
e 38 56
e 45 56
e 48 56
e 50 56
e 2 57
e 40 57
e 43 57
e 55 57
e 2 58
e 23 58
e 27 58
e 32 58
e 37 58
e 43 58
e 46 58
e 47 58
e 57 58
e 6 59
e 9 59
e 10 59
e 17 59
e 26 59
e 34 59
e 35 59
e 45 59
e 49 59
e 1 60
e 3 60
e 9 60
e 15 60
e 23 60
e 37 60
e 46 60
e 21 61
e 25 61
e 32 61
e 34 61
e 50 61
e 10 62
e 26 62
e 37 62
e 50 62
e 59 62
e 3 63
e 13 63
e 28 63
e 34 63
e 35 63
e 36 63
e 37 63
e 41 63
e 49 63
e 53 63
e 60 63
e 62 63
e 4 64
e 13 64
e 16 64
e 19 64
e 26 64
e 47 64
e 51 64
e 2 65
e 10 65
e 11 65
e 17 65
e 23 65
e 24 65
e 26 65
e 28 65
e 33 65
e 36 65
e 38 65
e 39 65
e 48 65
e 49 65
e 6 66
e 19 66
e 21 66
e 29 66
e 33 66
e 44 66
e 53 66
e 58 66
e 60 66
e 64 66
e 3 67
e 7 67
e 8 67
e 10 67
e 11 67
e 12 67
e 23 67
e 29 67
e 30 67
e 34 67
e 38 67
e 39 67
e 48 67
e 51 67
e 52 67
e 56 67
e 57 67
e 59 67
e 10 68
e 13 68
e 18 68
e 26 68
e 28 68
e 34 68
e 38 68
e 39 68
e 42 68
e 53 68
e 2 69
e 9 69
e 16 69
e 17 69
e 18 69
e 19 69
e 28 69
e 30 69
e 42 69
e 43 69
e 47 69
e 53 69
e 6 70
e 11 70
e 13 70
e 18 70
e 23 70
e 26 70
e 29 70
e 35 70
e 53 70
e 54 70
e 58 70
e 61 70
e 62 70
e 63 70
